data;


param d:= 100;
param r:=5;
param p:=0.780000;
param M:=1000;
param U:=
         1         1       -7.550532e-01
         2         1        9.357785e-01
         3         1       -4.316200e-01
         4         1       -6.528427e-01
         5         1       -1.809128e+00
         6         1       -8.888411e-01
         7         1       -1.429132e+00
         8         1       -9.641106e-01
         9         1        9.247782e-01
        10         1        7.152724e-01
        11         1        3.868616e-02
        12         1       -6.081759e-02
        13         1       -6.132257e-03
        14         1       -6.986696e-01
        15         1        4.179070e-01
        16         1       -6.851802e-01
        17         1        1.366562e-01
        18         1       -8.940044e-02
        19         1       -6.675172e-01
        20         1       -3.639998e-01
        21         1        2.230510e-01
        22         1       -7.578259e-02
        23         1        3.450656e-01
        24         1        1.719892e+00
        25         1       -8.987564e-01
        26         1       -2.003458e+00
        27         1       -4.719477e-01
        28         1        8.329766e-01
        29         1       -4.825264e-01
        30         1        1.530411e+00
        31         1       -7.454602e-01
        32         1       -4.409232e-01
        33         1       -1.151230e+00
        34         1       -7.499042e-01
        35         1        2.413343e-01
        36         1       -1.691561e+00
        37         1        1.656775e-01
        38         1        1.164083e+00
        39         1        1.888873e-01
        40         1       -5.490761e-01
        41         1       -2.089708e-01
        42         1       -1.129369e+00
        43         1       -1.290760e+00
        44         1       -3.210114e-01
        45         1       -8.066908e-01
        46         1        1.750419e+00
        47         1       -7.124100e-03
        48         1        9.635131e-01
        49         1        7.759963e-01
        50         1        1.605325e+00
        51         1       -1.016962e+00
        52         1       -9.372661e-01
        53         1       -7.184199e-01
        54         1       -1.475356e+00
        55         1        1.459978e-01
        56         1       -1.492009e-01
        57         1        9.896623e-01
        58         1        2.257399e-01
        59         1        7.684892e-01
        60         1        1.805801e-01
        61         1       -1.231134e-01
        62         1        6.708793e-02
        63         1       -8.690551e-01
        64         1        1.352355e+00
        65         1        2.338961e-01
        66         1        5.930496e-01
        67         1        2.171766e+00
        68         1        1.407958e+00
        69         1       -1.484250e-01
        70         1        5.416904e-01
        71         1        3.098706e-01
        72         1       -3.341863e-01
        73         1       -5.034328e-02
        74         1        5.235405e-01
        75         1        2.711572e-01
        76         1        1.659952e+00
        77         1        6.869434e-01
        78         1       -6.320894e-01
        79         1       -1.720847e+00
        80         1        3.047226e-01
        81         1        1.646304e-01
        82         1       -3.516934e-01
        83         1       -9.134340e-01
        84         1        1.028826e+00
        85         1       -2.550652e+00
        86         1       -1.760542e+00
        87         1       -7.154981e-01
        88         1       -1.251621e+00
        89         1       -1.308167e-01
        90         1       -3.379075e-01
        91         1        8.377158e-01
        92         1        7.511842e-01
        93         1        1.137895e+00
        94         1        5.605983e-01
        95         1       -3.665612e-01
        96         1        4.168944e-01
        97         1        4.889497e-01
        98         1       -2.488115e-02
        99         1       -3.679593e-01
       100         1       -1.343996e+00
         1         2       -7.363819e-01
         2         2        7.957283e-01
         3         2       -5.279913e-01
         4         2        8.561635e-01
         5         2        8.425736e-01
         6         2       -5.280440e-01
         7         2       -4.088354e-01
         8         2       -8.923579e-02
         9         2       -6.557951e-01
        10         2       -9.552171e-01
        11         2       -4.828449e-01
        12         2       -2.492401e-01
        13         2       -1.036264e+00
        14         2        2.103866e-01
        15         2       -7.454377e-02
        16         2       -1.807390e+00
        17         2        9.051797e-02
        18         2        8.034573e-01
        19         2       -2.486576e+00
        20         2       -3.787545e-01
        21         2        2.475536e+00
        22         2       -1.039227e+00
        23         2       -1.247755e+00
        24         2       -9.670014e-01
        25         2        1.482949e+00
        26         2       -1.104444e+00
        27         2       -4.878860e-02
        28         2        9.453842e-01
        29         2       -6.867188e-01
        30         2       -1.524726e+00
        31         2        1.127397e+00
        32         2       -8.612715e-01
        33         2        4.041488e-01
        34         2        1.433506e+00
        35         2       -3.949824e-01
        36         2        3.178681e-01
        37         2        4.922759e-01
        38         2        1.768293e+00
        39         2        6.664130e-01
        40         2        8.640132e-01
        41         2        9.729126e-01
        42         2        4.757890e-01
        43         2        5.600204e-01
        44         2       -1.058323e+00
        45         2       -4.530202e-01
        46         2       -6.107096e-01
        47         2       -2.168044e-01
        48         2       -5.313499e-01
        49         2       -5.806436e-01
        50         2        1.638888e-01
        51         2        1.500014e-01
        52         2        7.667498e-02
        53         2       -6.609331e-01
        54         2        8.075871e-02
        55         2        6.087929e-01
        56         2        3.160996e-01
        57         2       -2.848857e+00
        58         2        1.740110e-01
        59         2       -1.152145e+00
        60         2        2.875644e-01
        61         2        3.433602e-01
        62         2        2.123617e-01
        63         2       -4.951358e-01
        64         2       -4.066669e-01
        65         2        6.308459e-01
        66         2        9.461336e-01
        67         2        1.266776e+00
        68         2        1.157956e+00
        69         2        1.833384e-01
        70         2       -6.422080e-01
        71         2       -2.947948e+00
        72         2       -4.329452e-01
        73         2        1.353522e+00
        74         2       -1.960069e+00
        75         2        3.247092e-01
        76         2        1.599986e-01
        77         2        1.703678e+00
        78         2       -6.667732e-01
        79         2       -7.585281e-01
        80         2        6.014555e-01
        81         2       -1.866344e+00
        82         2       -2.424417e-01
        83         2       -1.143932e+00
        84         2        6.908489e-01
        85         2        1.323552e+00
        86         2        2.118802e-01
        87         2        9.129933e-01
        88         2        5.721519e-01
        89         2       -2.817741e-01
        90         2       -2.993804e-01
        91         2       -9.767751e-02
        92         2        4.020872e-01
        93         2        1.094909e+00
        94         2        1.212404e+00
        95         2        3.810342e-01
        96         2       -4.297107e-01
        97         2        1.322130e+00
        98         2        9.530939e-01
        99         2        1.068558e+00
       100         2        5.674560e-01
         1         3        5.826603e-01
         2         3       -5.081546e-01
         3         3        1.069234e-01
         4         3       -1.122899e-01
         5         3        5.105012e-01
         6         3        3.355311e-01
         7         3       -6.326314e-01
         8         3       -6.624842e-01
         9         3        4.897697e-01
        10         3        1.101282e+00
        11         3        9.122879e-01
        12         3        1.244360e+00
        13         3       -4.567285e-01
        14         3       -3.328323e-01
        15         3        1.218697e+00
        16         3       -5.295341e-01
        17         3        2.617557e-02
        18         3       -7.552896e-01
        19         3        2.249941e+00
        20         3       -1.239161e+00
        21         3        2.600343e-01
        22         3       -6.655273e-01
        23         3        1.479895e+00
        24         3        3.849153e-01
        25         3       -1.734583e+00
        26         3        7.420919e-01
        27         3       -1.322295e+00
        28         3       -6.437161e-01
        29         3        3.563427e-01
        30         3        4.642524e-01
        31         3        4.115949e-01
        32         3       -1.094538e-01
        33         3       -2.023405e-01
        34         3       -9.222955e-01
        35         3        1.258189e+00
        36         3        1.268339e+00
        37         3       -6.404672e-01
        38         3        2.826992e+00
        39         3        4.571067e-01
        40         3        4.453913e-01
        41         3        1.103882e+00
        42         3       -7.919666e-01
        43         3       -9.200660e-01
        44         3       -1.225738e+00
        45         3       -5.722460e-02
        46         3       -9.773929e-01
        47         3        9.396117e-01
        48         3       -8.103747e-01
        49         3        4.528174e-01
        50         3        2.968458e-01
        51         3       -5.740713e-01
        52         3       -1.727604e-02
        53         3       -3.995980e-03
        54         3       -8.901637e-01
        55         3        3.912870e-01
        56         3       -8.173684e-01
        57         3       -6.433351e-01
        58         3       -1.969710e-01
        59         3       -5.102149e-01
        60         3       -5.623927e-01
        61         3        1.472164e+00
        62         3       -3.356139e-01
        63         3       -4.276244e-01
        64         3       -1.681530e-01
        65         3        4.484910e-02
        66         3        9.404843e-01
        67         3        9.771740e-01
        68         3       -1.380269e+00
        69         3       -2.440684e-01
        70         3       -1.212962e+00
        71         3        1.799036e-01
        72         3        2.380499e-01
        73         3       -1.029614e+00
        74         3       -5.354318e-01
        75         3        5.015393e-01
        76         3        1.577119e+00
        77         3        9.377395e-01
        78         3        9.125706e-01
        79         3       -8.689235e-01
        80         3        7.920888e-02
        81         3        6.690259e-01
        82         3       -6.833727e-01
        83         3        2.032700e-02
        84         3       -1.447382e-01
        85         3        7.326600e-01
        86         3       -5.495811e-01
        87         3        3.215037e-01
        88         3       -1.335312e+00
        89         3       -2.215388e+00
        90         3        6.141543e-01
        91         3        1.777776e+00
        92         3       -5.094498e-01
        93         3       -2.281127e-01
        94         3        1.741361e-01
        95         3       -1.126924e+00
        96         3       -6.253039e-01
        97         3       -3.279637e-02
        98         3        1.840575e+00
        99         3        9.962938e-01
       100         3        6.945585e-01
         1         4        1.061696e+00
         2         4        1.760207e-01
         3         4       -1.461417e-01
         4         4        3.428469e-01
         5         4        3.852652e-02
         6         4       -1.648016e-01
         7         4       -3.577390e-01
         8         4       -3.402354e-01
         9         4       -3.846190e-01
        10         4       -2.877543e-01
        11         4       -1.535672e+00
        12         4       -2.280013e-01
        13         4        1.060873e+00
        14         4        6.903651e-01
        15         4        5.385421e-01
        16         4        1.813180e+00
        17         4        2.009708e+00
        18         4       -6.696480e-02
        19         4       -3.603155e-01
        20         4       -2.977505e-01
        21         4       -1.009375e+00
        22         4        1.420261e+00
        23         4        7.812459e-01
        24         4        2.938997e+00
        25         4       -1.964989e-01
        26         4        1.707412e+00
        27         4        8.373023e-01
        28         4        1.302478e-01
        29         4       -6.478870e-01
        30         4       -3.933860e-01
        31         4        1.312786e+00
        32         4        8.049496e-01
        33         4        1.083171e+00
        34         4       -4.240237e-01
        35         4        4.994919e-01
        36         4       -1.313575e+00
        37         4       -2.458292e-01
        38         4       -5.344904e-01
        39         4        1.167904e+00
        40         4        1.182131e+00
        41         4       -9.798340e-01
        42         4       -1.089243e+00
        43         4       -1.941714e+00
        44         4       -1.007420e+00
        45         4       -3.337105e-01
        46         4       -2.558450e+00
        47         4        4.673228e-01
        48         4        4.447619e-01
        49         4       -4.164270e-01
        50         4       -1.900666e+00
        51         4        7.645573e-01
        52         4       -9.264544e-01
        53         4       -7.543970e-01
        54         4       -8.286733e-02
        55         4        1.251194e+00
        56         4        7.370985e-01
        57         4        1.602855e-02
        58         4        1.061641e+00
        59         4       -1.757620e+00
        60         4        1.016325e+00
        61         4       -7.867466e-01
        62         4        4.714213e-01
        63         4       -5.571278e-01
        64         4        1.747250e+00
        65         4       -3.082209e-01
        66         4        1.075915e+00
        67         4       -3.824481e-01
        68         4        2.620674e-01
        69         4        1.333975e+00
        70         4       -1.720527e+00
        71         4        5.784512e-01
        72         4       -4.011105e-01
        73         4       -1.998831e-01
        74         4        5.843701e-02
        75         4        1.523575e+00
        76         4        1.972325e+00
        77         4       -5.995183e-01
        78         4       -7.332911e-01
        79         4       -1.009230e+00
        80         4       -1.752927e-01
        81         4        3.502080e-01
        82         4        3.523015e-01
        83         4       -5.169989e-01
        84         4        2.306774e-01
        85         4       -5.451762e-01
        86         4        1.041098e+00
        87         4       -3.401330e-01
        88         4        8.317979e-02
        89         4        2.581856e-01
        90         4        5.055737e-01
        91         4       -3.362606e-01
        92         4        4.041680e-01
        93         4        1.340849e+00
        94         4        3.307518e-01
        95         4        3.231882e-01
        96         4       -2.432871e+00
        97         4        1.039916e+00
        98         4       -1.142832e+00
        99         4        4.676715e-01
       100         4       -9.392041e-01
         1         5       -1.433332e+00
         2         5        4.391776e-01
         3         5        2.131691e+00
         4         5       -1.290272e-01
         5         5       -1.208286e+00
         6         5       -9.748030e-01
         7         5        1.106268e+00
         8         5        8.959762e-01
         9         5       -5.512820e-01
        10         5       -4.658067e-02
        11         5       -1.603357e-02
        12         5       -1.069150e+00
        13         5        1.857014e+00
        14         5        9.407742e-01
        15         5       -8.390226e-01
        16         5       -1.433606e-01
        17         5       -5.459910e-01
        18         5       -9.117770e-01
        19         5        1.259264e+00
        20         5       -1.270550e+00
        21         5        3.720590e-01
        22         5       -7.126323e-01
        23         5       -5.595920e-01
        24         5        7.433451e-01
        25         5       -1.633460e+00
        26         5       -2.397824e-01
        27         5       -7.900355e-02
        28         5       -2.038827e+00
        29         5       -2.612816e-01
        30         5        3.224040e-01
        31         5       -1.621811e+00
        32         5        7.436853e-01
        33         5        4.279343e-01
        34         5        6.907221e-01
        35         5        1.108882e+00
        36         5        1.474676e-02
        37         5        9.873236e-01
        38         5        2.501762e-01
        39         5        8.723710e-01
        40         5       -2.979047e-01
        41         5        1.980425e-01
        42         5       -7.696200e-01
        43         5       -1.799141e+00
        44         5       -1.450479e+00
        45         5        6.736921e-01
        46         5        1.877971e+00
        47         5        1.035121e-01
        48         5        2.292106e+00
        49         5        1.459180e-01
        50         5        4.270595e-02
        51         5        1.486171e-01
        52         5       -1.771966e-01
        53         5        8.775574e-01
        54         5       -5.156608e-01
        55         5        8.309504e-01
        56         5        2.019282e-01
        57         5        8.324748e-01
        58         5        1.003156e-01
        59         5       -4.832939e-02
        60         5        5.868279e-01
        61         5       -5.022975e-01
        62         5        2.418586e+00
        63         5        1.697012e+00
        64         5        2.101321e+00
        65         5       -1.926664e-01
        66         5       -2.304190e+00
        67         5       -7.615405e-02
        68         5        1.009726e+00
        69         5       -7.438847e-01
        70         5       -5.098786e-01
        71         5       -6.237353e-01
        72         5       -4.526753e-01
        73         5       -2.160685e-01
        74         5       -2.182902e-01
        75         5        4.584570e-01
        76         5        5.170225e-01
        77         5        1.647866e+00
        78         5        1.697326e+00
        79         5        2.697605e-01
        80         5       -8.323623e-01
        81         5        9.512878e-01
        82         5       -7.158900e-01
        83         5        1.901126e+00
        84         5       -4.747741e-01
        85         5       -2.003363e+00
        86         5        3.195785e-01
        87         5        6.785206e-01
        88         5        7.613760e-01
        89         5       -1.544850e+00
        90         5        6.815627e-01
        91         5       -3.194552e-01
        92         5        7.212791e-01
        93         5       -1.154020e+00
        94         5       -2.123816e+00
        95         5        4.574317e-01
        96         5        8.009115e-01
        97         5        5.780975e-01
        98         5        5.999879e-01
        99         5        2.513842e-01
       100         5       -1.214778e-01
;

param theta:=
    1       -8.951179e-01
    2       -2.034287e+00
    3        1.071948e-01
    4       -1.828028e+00
    5        5.840234e-01
;
param X_true:=
    1       -5.559361e-01
    2       -2.551713e+00
    3        3.009707e+00
    4       -2.013591e+00
    5       -7.186749e-01
    6        1.321949e+00
    7        3.269628e+00
    8        2.006584e+00
    9        7.765282e-01
   10        1.903296e+00
   11        3.963224e+00
   12        4.013081e-01
   13        1.174852e+00
   14       -6.841704e-01
   15       -1.657358e+00
   16        9.203337e-01
   17       -4.268553e+00
   18       -2.030211e+00
   19        7.200252e+00
   20        5.961309e-01
   21       -3.169292e+00
   22       -8.896949e-01
   23        6.945248e-01
   24       -4.500767e+00
   25       -2.977995e+00
   26        7.593145e-01
   27       -1.002111e+00
   28       -4.146526e+00
   29        2.869480e+00
   30        2.722331e+00
   31       -4.897904e+00
   32        1.202665e+00
   33       -1.567269e+00
   34       -1.084859e+00
   35        4.246716e-01
   36        3.369141e+00
   37       -1.722150e-01
   38       -3.268706e+00
   39       -3.108112e+00
   40       -3.544431e+00
   41        3.247974e-01
   42        1.493115e+00
   43        2.533601e+00
   44        3.203820e+00
   45        2.658808e+00
   46        5.185380e+00
   47       -2.791757e-01
   48        5.286778e-01
   49        1.389666e+00
   50        1.802935e+00
   51       -6.521498e-01
   52        2.162549e+00
   53        4.044129e+00
   54        9.234991e-01
   55       -2.973065e+00
   56       -1.984244e+00
   57        5.143806e+00
   58       -2.417187e+00
   59        4.715656e+00
   60       -2.430909e+00
   61        8.994994e-01
   62       -8.161670e-02
   63        3.683431e+00
   64       -2.308520e+00
   65       -1.065489e+00
   66       -5.694073e+00
   67       -3.761632e+00
   68       -3.622832e+00
   69       -3.122128e+00
   70        3.481982e+00
   71        4.195515e+00
   72        1.527898e+00
   73       -2.643781e+00
   74        2.956449e+00
   75       -3.491704e+00
   76       -4.935975e+00
   77       -1.981782e+00
   78        4.314095e+00
   79        4.986394e+00
   80       -1.708885e+00
   81        3.595978e+00
   82       -2.304100e-01
   83        5.282133e+00
   84       -2.980815e+00
   85       -4.664590e-01
   86       -6.866529e-01
   87       -2.030534e-01
   88        8.534831e-02
   89       -1.004487e+00
   90        2.371150e-01
   91       -1.500710e-02
   92       -2.050235e+00
   93       -6.386517e+00
   94       -4.726106e+00
   95       -8.618942e-01
   96        5.404050e+00
   97       -4.724633e+00
   98        7.143830e-01
   99       -2.322843e+00
  100        1.578194e+00
;
param X:=
    1        6.896836e-01
    2        1.698891e+00
    3        3.009707e+00
    4        2.463728e+00
    5       -7.186749e-01
    6       -9.932076e-01
    7        3.269628e+00
    8        2.006584e+00
    9        7.765282e-01
   10       -1.424769e+00
   11        3.963224e+00
   12       -8.228182e-02
   13        1.174852e+00
   14       -1.259719e-01
   15        5.613296e-01
   16        1.765304e-01
   17       -4.268553e+00
   18       -2.030211e+00
   19        4.194670e-01
   20        2.019136e-02
   21       -3.169292e+00
   22       -1.195152e-01
   23        6.945248e-01
   24       -8.913000e-01
   25        2.636017e-01
   26       -7.130719e-01
   27       -5.892040e-02
   28       -4.146526e+00
   29       -3.773556e-01
   30        2.722331e+00
   31        1.635044e-01
   32        6.476174e-02
   33        8.057222e-01
   34        6.190374e-01
   35        2.051195e-01
   36       -2.379269e+00
   37       -1.722150e-01
   38        8.208223e-01
   39        2.302987e-01
   40       -3.544431e+00
   41        1.334110e+00
   42        1.493115e+00
   43        1.421331e+00
   44        4.431305e-01
   45        3.790274e-02
   46        1.008176e+00
   47       -2.791757e-01
   48       -2.800272e-01
   49       -1.374747e-03
   50        7.631678e-01
   51       -3.234198e-01
   52        4.730888e-01
   53       -4.851693e-02
   54       -3.785919e-01
   55       -1.345124e+00
   56       -6.442984e-01
   57        1.061434e+00
   58       -6.674305e-01
   59        2.583445e+00
   60       -5.648040e-02
   61        1.650473e+00
   62        4.288117e-01
   63        9.596392e-01
   64        1.120847e+00
   65        3.873344e-01
   66       -6.023744e-01
   67        7.409441e-01
   68       -9.914929e-02
   69       -5.505952e-01
   70        2.177536e-01
   71        2.051955e+00
   72        1.035620e+00
   73       -5.825720e-01
   74        2.956449e+00
   75        3.684932e-01
   76        1.722045e+00
   77       -1.510784e+00
   78        4.511858e-01
   79        4.986394e+00
   80        1.758853e+00
   81        1.581332e+00
   82        8.963140e-01
   83        1.694490e+00
   84       -1.468198e+00
   85        1.695319e+00
   86        6.244222e-02
   87       -3.164852e-01
   88        8.534831e-02
   89       -2.512403e+00
   90        1.729287e+00
   91        6.767590e-01
   92        1.560461e-01
   93       -1.841259e+00
   94       -4.726106e+00
   95       -1.774158e-01
   96        2.182158e-01
   97       -1.208346e+00
   98        7.143830e-01
   99       -1.860246e+00
  100        8.967546e-01
;
param outliervec:=
    1    1
    2    1
    3    0
    4    1
    5    0
    6    1
    7    0
    8    0
    9    0
   10    1
   11    0
   12    1
   13    0
   14    1
   15    1
   16    1
   17    0
   18    0
   19    1
   20    1
   21    0
   22    1
   23    0
   24    1
   25    1
   26    1
   27    1
   28    0
   29    1
   30    0
   31    1
   32    1
   33    1
   34    1
   35    1
   36    1
   37    0
   38    1
   39    1
   40    0
   41    1
   42    0
   43    1
   44    1
   45    1
   46    1
   47    0
   48    1
   49    1
   50    1
   51    1
   52    1
   53    1
   54    1
   55    1
   56    1
   57    1
   58    1
   59    1
   60    1
   61    1
   62    1
   63    1
   64    1
   65    1
   66    1
   67    1
   68    1
   69    1
   70    1
   71    1
   72    1
   73    1
   74    0
   75    1
   76    1
   77    1
   78    1
   79    0
   80    1
   81    1
   82    1
   83    1
   84    1
   85    1
   86    1
   87    1
   88    0
   89    1
   90    1
   91    1
   92    1
   93    1
   94    0
   95    1
   96    1
   97    1
   98    0
   99    1
  100    1
;